
Gurobi 9.5.2 (win64, C++) logging started Thu Oct 20 20:55:54 2022

Set parameter Username
Set parameter LogFile to value "PortfolioOptimization.log"
Academic license - for non-commercial use only - expires 2023-10-06
Gurobi Optimizer version 9.5.2 build v9.5.2rc0 (win64)
Thread count: 4 physical cores, 8 logical processors, using up to 8 threads
Optimize a model with 2 rows, 5 columns and 10 nonzeros
Model fingerprint: 0x1008ee21
Coefficient statistics:
  Matrix range     [1e+00, 1e+01]
  Objective range  [7e+01, 3e+02]
  Bounds range     [1e+00, 1e+00]
  RHS range        [1e+00, 1e+01]
Presolve time: 0.00s
Presolved: 2 rows, 5 columns, 10 nonzeros

Iteration    Objective       Primal Inf.    Dual Inf.      Time
       0    2.6276903e+02   4.596805e-01   0.000000e+00      0s
       1    1.4326242e+02   0.000000e+00   0.000000e+00      0s

Solved in 1 iterations and 0.01 seconds (0.00 work units)
Optimal objective  1.432624245e+02

Gurobi 9.5.2 (win64, C++) logging started Thu Oct 20 20:56:22 2022

Set parameter Username
Set parameter LogFile to value "PortfolioOptimization.log"
Academic license - for non-commercial use only - expires 2023-10-06
Gurobi Optimizer version 9.5.2 build v9.5.2rc0 (win64)
Thread count: 4 physical cores, 8 logical processors, using up to 8 threads
Optimize a model with 2 rows, 3 columns and 6 nonzeros
Model fingerprint: 0xddb8d2dc
Coefficient statistics:
  Matrix range     [1e+00, 1e+01]
  Objective range  [7e+01, 3e+02]
  Bounds range     [1e+00, 1e+00]
  RHS range        [1e+00, 1e+01]
Presolve time: 0.03s
Presolved: 2 rows, 3 columns, 6 nonzeros

Iteration    Objective       Primal Inf.    Dual Inf.      Time
       0    2.9614273e+02   5.795119e-01   0.000000e+00      0s
       1    1.4440382e+02   0.000000e+00   0.000000e+00      0s

Solved in 1 iterations and 0.04 seconds (0.00 work units)
Optimal objective  1.444038245e+02

Gurobi 9.5.2 (win64, C++) logging started Thu Oct 20 21:58:10 2022

Set parameter Username
Set parameter LogFile to value "PortfolioOptimization.log"
Academic license - for non-commercial use only - expires 2023-10-06
Gurobi Optimizer version 9.5.2 build v9.5.2rc0 (win64)
Thread count: 4 physical cores, 8 logical processors, using up to 8 threads
Optimize a model with 2 rows, 5 columns and 10 nonzeros
Model fingerprint: 0x1008ee21
Coefficient statistics:
  Matrix range     [1e+00, 1e+01]
  Objective range  [7e+01, 3e+02]
  Bounds range     [1e+00, 1e+00]
  RHS range        [1e+00, 1e+01]
Presolve time: 0.01s
Presolved: 2 rows, 5 columns, 10 nonzeros

Iteration    Objective       Primal Inf.    Dual Inf.      Time
       0    2.6276903e+02   4.596805e-01   0.000000e+00      0s
       1    1.4326242e+02   0.000000e+00   0.000000e+00      0s

Solved in 1 iterations and 0.01 seconds (0.00 work units)
Optimal objective  1.432624245e+02

Gurobi 9.5.2 (win64, C++) logging started Thu Oct 20 22:00:04 2022

Set parameter Username
Set parameter LogFile to value "PortfolioOptimization.log"
Academic license - for non-commercial use only - expires 2023-10-06
Gurobi Optimizer version 9.5.2 build v9.5.2rc0 (win64)
Thread count: 4 physical cores, 8 logical processors, using up to 8 threads
Optimize a model with 2 rows, 5 columns and 10 nonzeros
Model fingerprint: 0x1008ee21
Coefficient statistics:
  Matrix range     [1e+00, 1e+01]
  Objective range  [7e+01, 3e+02]
  Bounds range     [1e+00, 1e+00]
  RHS range        [1e+00, 1e+01]
Presolve time: 0.01s
Presolved: 2 rows, 5 columns, 10 nonzeros

Iteration    Objective       Primal Inf.    Dual Inf.      Time
       0    2.6276903e+02   4.596805e-01   0.000000e+00      0s
       1    1.4326242e+02   0.000000e+00   0.000000e+00      0s

Solved in 1 iterations and 0.01 seconds (0.00 work units)
Optimal objective  1.432624245e+02

Gurobi 9.5.2 (win64, C++) logging started Thu Oct 20 22:01:25 2022

Set parameter Username
Set parameter LogFile to value "PortfolioOptimization.log"
Academic license - for non-commercial use only - expires 2023-10-06
Gurobi Optimizer version 9.5.2 build v9.5.2rc0 (win64)
Thread count: 4 physical cores, 8 logical processors, using up to 8 threads
Optimize a model with 2 rows, 5 columns and 10 nonzeros
Model fingerprint: 0x1008ee21
Coefficient statistics:
  Matrix range     [1e+00, 1e+01]
  Objective range  [7e+01, 3e+02]
  Bounds range     [1e+00, 1e+00]
  RHS range        [1e+00, 1e+01]
Presolve time: 0.01s
Presolved: 2 rows, 5 columns, 10 nonzeros

Iteration    Objective       Primal Inf.    Dual Inf.      Time
       0    2.6276903e+02   4.596805e-01   0.000000e+00      0s
       1    1.4326242e+02   0.000000e+00   0.000000e+00      0s

Solved in 1 iterations and 0.01 seconds (0.00 work units)
Optimal objective  1.432624245e+02

Gurobi 9.5.2 (win64, C++) logging started Thu Oct 20 22:02:52 2022

Set parameter Username
Set parameter LogFile to value "PortfolioOptimization.log"
Academic license - for non-commercial use only - expires 2023-10-06
Gurobi Optimizer version 9.5.2 build v9.5.2rc0 (win64)
Thread count: 4 physical cores, 8 logical processors, using up to 8 threads
Optimize a model with 2 rows, 5 columns and 10 nonzeros
Model fingerprint: 0x1008ee21
Coefficient statistics:
  Matrix range     [1e+00, 1e+01]
  Objective range  [7e+01, 3e+02]
  Bounds range     [1e+00, 1e+00]
  RHS range        [1e+00, 1e+01]
Presolve time: 0.00s
Presolved: 2 rows, 5 columns, 10 nonzeros

Iteration    Objective       Primal Inf.    Dual Inf.      Time
       0    2.6276903e+02   4.596805e-01   0.000000e+00      0s
       1    1.4326242e+02   0.000000e+00   0.000000e+00      0s

Solved in 1 iterations and 0.01 seconds (0.00 work units)
Optimal objective  1.432624245e+02

Gurobi 9.5.2 (win64, C++) logging started Thu Oct 20 22:03:24 2022

Set parameter Username
Set parameter LogFile to value "PortfolioOptimization.log"
Academic license - for non-commercial use only - expires 2023-10-06
Gurobi Optimizer version 9.5.2 build v9.5.2rc0 (win64)
Thread count: 4 physical cores, 8 logical processors, using up to 8 threads
Optimize a model with 2 rows, 5 columns and 10 nonzeros
Model fingerprint: 0x1008ee21
Coefficient statistics:
  Matrix range     [1e+00, 1e+01]
  Objective range  [7e+01, 3e+02]
  Bounds range     [1e+00, 1e+00]
  RHS range        [1e+00, 1e+01]
Presolve time: 0.00s
Presolved: 2 rows, 5 columns, 10 nonzeros

Iteration    Objective       Primal Inf.    Dual Inf.      Time
       0    2.6276903e+02   4.596805e-01   0.000000e+00      0s
       1    1.4326242e+02   0.000000e+00   0.000000e+00      0s

Solved in 1 iterations and 0.01 seconds (0.00 work units)
Optimal objective  1.432624245e+02

Gurobi 9.5.2 (win64, C++) logging started Thu Oct 20 22:03:44 2022

Set parameter Username
Set parameter LogFile to value "PortfolioOptimization.log"
Academic license - for non-commercial use only - expires 2023-10-06
Gurobi Optimizer version 9.5.2 build v9.5.2rc0 (win64)
Thread count: 4 physical cores, 8 logical processors, using up to 8 threads
Optimize a model with 2 rows, 5 columns and 10 nonzeros
Model fingerprint: 0x1008ee21
Coefficient statistics:
  Matrix range     [1e+00, 1e+01]
  Objective range  [7e+01, 3e+02]
  Bounds range     [1e+00, 1e+00]
  RHS range        [1e+00, 1e+01]
Presolve time: 0.01s
Presolved: 2 rows, 5 columns, 10 nonzeros

Iteration    Objective       Primal Inf.    Dual Inf.      Time
       0    2.6276903e+02   4.596805e-01   0.000000e+00      0s
       1    1.4326242e+02   0.000000e+00   0.000000e+00      0s

Solved in 1 iterations and 0.01 seconds (0.00 work units)
Optimal objective  1.432624245e+02

Gurobi 9.5.2 (win64, C++) logging started Thu Oct 20 22:04:01 2022

Set parameter Username
Set parameter LogFile to value "PortfolioOptimization.log"
Academic license - for non-commercial use only - expires 2023-10-06
Gurobi Optimizer version 9.5.2 build v9.5.2rc0 (win64)
Thread count: 4 physical cores, 8 logical processors, using up to 8 threads
Optimize a model with 2 rows, 3 columns and 6 nonzeros
Model fingerprint: 0x462e07ae
Coefficient statistics:
  Matrix range     [1e+00, 9e+00]
  Objective range  [7e+01, 9e+01]
  Bounds range     [1e+00, 1e+00]
  RHS range        [1e+00, 1e+01]
Presolve time: 0.00s
Presolved: 2 rows, 3 columns, 6 nonzeros

Iteration    Objective       Primal Inf.    Dual Inf.      Time
       0    8.7679837e+01   1.773971e-01   0.000000e+00      0s

Solved in 0 iterations and 0.01 seconds (0.00 work units)
Infeasible model

IIS computed: 2 constraints and 2 bounds
IIS runtime: 0.00 seconds (0.00 work units)

Gurobi 9.5.2 (win64, C++) logging started Thu Oct 20 22:04:10 2022

Set parameter Username
Set parameter LogFile to value "PortfolioOptimization.log"
Academic license - for non-commercial use only - expires 2023-10-06
Gurobi Optimizer version 9.5.2 build v9.5.2rc0 (win64)
Thread count: 4 physical cores, 8 logical processors, using up to 8 threads
Optimize a model with 2 rows, 3 columns and 6 nonzeros
Model fingerprint: 0xddb8d2dc
Coefficient statistics:
  Matrix range     [1e+00, 1e+01]
  Objective range  [7e+01, 3e+02]
  Bounds range     [1e+00, 1e+00]
  RHS range        [1e+00, 1e+01]
Presolve time: 0.00s
Presolved: 2 rows, 3 columns, 6 nonzeros

Iteration    Objective       Primal Inf.    Dual Inf.      Time
       0    2.9614273e+02   5.795119e-01   0.000000e+00      0s
       1    1.4440382e+02   0.000000e+00   0.000000e+00      0s

Solved in 1 iterations and 0.01 seconds (0.00 work units)
Optimal objective  1.444038245e+02

Gurobi 9.5.2 (win64, C++) logging started Thu Oct 20 23:00:18 2022

Set parameter Username
Set parameter LogFile to value "PortfolioOptimization.log"
Academic license - for non-commercial use only - expires 2023-10-06
Gurobi Optimizer version 9.5.2 build v9.5.2rc0 (win64)
Thread count: 4 physical cores, 8 logical processors, using up to 8 threads
Optimize a model with 2 rows, 5 columns and 10 nonzeros
Model fingerprint: 0x1008ee21
Coefficient statistics:
  Matrix range     [1e+00, 1e+01]
  Objective range  [7e+01, 3e+02]
  Bounds range     [1e+00, 1e+00]
  RHS range        [1e+00, 1e+01]
Presolve time: 0.01s
Presolved: 2 rows, 5 columns, 10 nonzeros

Iteration    Objective       Primal Inf.    Dual Inf.      Time
       0    2.6276903e+02   4.596805e-01   0.000000e+00      0s
       1    1.4326242e+02   0.000000e+00   0.000000e+00      0s

Solved in 1 iterations and 0.01 seconds (0.00 work units)
Optimal objective  1.432624245e+02

Gurobi 9.5.2 (win64, C++) logging started Thu Oct 20 23:00:33 2022

Set parameter Username
Set parameter LogFile to value "PortfolioOptimization.log"
Academic license - for non-commercial use only - expires 2023-10-06
Gurobi Optimizer version 9.5.2 build v9.5.2rc0 (win64)
Thread count: 4 physical cores, 8 logical processors, using up to 8 threads
Optimize a model with 2 rows, 3 columns and 6 nonzeros
Model fingerprint: 0x462e07ae
Coefficient statistics:
  Matrix range     [1e+00, 9e+00]
  Objective range  [7e+01, 9e+01]
  Bounds range     [1e+00, 1e+00]
  RHS range        [1e+00, 1e+01]
Presolve time: 0.01s
Presolved: 2 rows, 3 columns, 6 nonzeros

Iteration    Objective       Primal Inf.    Dual Inf.      Time
       0    8.7679837e+01   1.773971e-01   0.000000e+00      0s

Solved in 0 iterations and 0.01 seconds (0.00 work units)
Infeasible model

IIS computed: 2 constraints and 2 bounds
IIS runtime: 0.00 seconds (0.00 work units)

Gurobi 9.5.2 (win64, C++) logging started Thu Oct 20 23:00:37 2022

Set parameter Username
Set parameter LogFile to value "PortfolioOptimization.log"
Academic license - for non-commercial use only - expires 2023-10-06
Gurobi Optimizer version 9.5.2 build v9.5.2rc0 (win64)
Thread count: 4 physical cores, 8 logical processors, using up to 8 threads
Optimize a model with 2 rows, 3 columns and 6 nonzeros
Model fingerprint: 0xddb8d2dc
Coefficient statistics:
  Matrix range     [1e+00, 1e+01]
  Objective range  [7e+01, 3e+02]
  Bounds range     [1e+00, 1e+00]
  RHS range        [1e+00, 1e+01]
Presolve time: 0.00s
Presolved: 2 rows, 3 columns, 6 nonzeros

Iteration    Objective       Primal Inf.    Dual Inf.      Time
       0    2.9614273e+02   5.795119e-01   0.000000e+00      0s
       1    1.4440382e+02   0.000000e+00   0.000000e+00      0s

Solved in 1 iterations and 0.01 seconds (0.00 work units)
Optimal objective  1.444038245e+02

Gurobi 9.5.2 (win64, C++) logging started Fri Oct 21 09:21:11 2022

Set parameter Username
Set parameter LogFile to value "PortfolioOptimization.log"
Academic license - for non-commercial use only - expires 2023-10-06
Gurobi Optimizer version 9.5.2 build v9.5.2rc0 (win64)
Thread count: 4 physical cores, 8 logical processors, using up to 8 threads
Optimize a model with 2 rows, 5 columns and 10 nonzeros
Model fingerprint: 0x1008ee21
Coefficient statistics:
  Matrix range     [1e+00, 1e+01]
  Objective range  [7e+01, 3e+02]
  Bounds range     [1e+00, 1e+00]
  RHS range        [1e+00, 1e+01]
Presolve time: 0.01s
Presolved: 2 rows, 5 columns, 10 nonzeros

Iteration    Objective       Primal Inf.    Dual Inf.      Time
       0    2.6276903e+02   4.596805e-01   0.000000e+00      0s
       1    1.4326242e+02   0.000000e+00   0.000000e+00      0s

Solved in 1 iterations and 0.05 seconds (0.00 work units)
Optimal objective  1.432624245e+02

Gurobi 9.5.2 (win64, C++) logging started Fri Oct 21 09:22:06 2022

Set parameter Username
Set parameter LogFile to value "PortfolioOptimization.log"
Academic license - for non-commercial use only - expires 2023-10-06
Gurobi Optimizer version 9.5.2 build v9.5.2rc0 (win64)
Thread count: 4 physical cores, 8 logical processors, using up to 8 threads
Optimize a model with 2 rows, 5 columns and 10 nonzeros
Model fingerprint: 0x1008ee21
Coefficient statistics:
  Matrix range     [1e+00, 1e+01]
  Objective range  [7e+01, 3e+02]
  Bounds range     [1e+00, 1e+00]
  RHS range        [1e+00, 1e+01]
Presolve time: 0.00s
Presolved: 2 rows, 5 columns, 10 nonzeros

Iteration    Objective       Primal Inf.    Dual Inf.      Time
       0    2.6276903e+02   4.596805e-01   0.000000e+00      0s
       1    1.4326242e+02   0.000000e+00   0.000000e+00      0s

Solved in 1 iterations and 0.01 seconds (0.00 work units)
Optimal objective  1.432624245e+02

Gurobi 9.5.2 (win64, C++) logging started Fri Oct 21 09:22:41 2022

Set parameter Username
Set parameter LogFile to value "PortfolioOptimization.log"
Academic license - for non-commercial use only - expires 2023-10-06
Gurobi Optimizer version 9.5.2 build v9.5.2rc0 (win64)
Thread count: 4 physical cores, 8 logical processors, using up to 8 threads
Optimize a model with 2 rows, 5 columns and 10 nonzeros
Model fingerprint: 0x1008ee21
Coefficient statistics:
  Matrix range     [1e+00, 1e+01]
  Objective range  [7e+01, 3e+02]
  Bounds range     [1e+00, 1e+00]
  RHS range        [1e+00, 1e+01]
Presolve time: 0.00s
Presolved: 2 rows, 5 columns, 10 nonzeros

Iteration    Objective       Primal Inf.    Dual Inf.      Time
       0    2.6276903e+02   4.596805e-01   0.000000e+00      0s
       1    1.4326242e+02   0.000000e+00   0.000000e+00      0s

Solved in 1 iterations and 0.01 seconds (0.00 work units)
Optimal objective  1.432624245e+02

Gurobi 9.5.2 (win64, C++) logging started Fri Oct 21 09:25:29 2022

Set parameter Username
Set parameter LogFile to value "PortfolioOptimization.log"
Academic license - for non-commercial use only - expires 2023-10-06
Gurobi Optimizer version 9.5.2 build v9.5.2rc0 (win64)
Thread count: 4 physical cores, 8 logical processors, using up to 8 threads
Optimize a model with 2 rows, 5 columns and 10 nonzeros
Model fingerprint: 0x1008ee21
Coefficient statistics:
  Matrix range     [1e+00, 1e+01]
  Objective range  [7e+01, 3e+02]
  Bounds range     [1e+00, 1e+00]
  RHS range        [1e+00, 1e+01]
Presolve time: 0.00s
Presolved: 2 rows, 5 columns, 10 nonzeros

Iteration    Objective       Primal Inf.    Dual Inf.      Time
       0    2.6276903e+02   4.596805e-01   0.000000e+00      0s
       1    1.4326242e+02   0.000000e+00   0.000000e+00      0s

Solved in 1 iterations and 0.01 seconds (0.00 work units)
Optimal objective  1.432624245e+02

Gurobi 9.5.2 (win64, C++) logging started Fri Oct 21 09:25:41 2022

Set parameter Username
Set parameter LogFile to value "PortfolioOptimization.log"
Academic license - for non-commercial use only - expires 2023-10-06
Gurobi Optimizer version 9.5.2 build v9.5.2rc0 (win64)
Thread count: 4 physical cores, 8 logical processors, using up to 8 threads
Optimize a model with 2 rows, 5 columns and 10 nonzeros
Model fingerprint: 0x1008ee21
Coefficient statistics:
  Matrix range     [1e+00, 1e+01]
  Objective range  [7e+01, 3e+02]
  Bounds range     [1e+00, 1e+00]
  RHS range        [1e+00, 1e+01]
Presolve time: 0.00s
Presolved: 2 rows, 5 columns, 10 nonzeros

Iteration    Objective       Primal Inf.    Dual Inf.      Time
       0    2.6276903e+02   4.596805e-01   0.000000e+00      0s
       1    1.4326242e+02   0.000000e+00   0.000000e+00      0s

Solved in 1 iterations and 0.01 seconds (0.00 work units)
Optimal objective  1.432624245e+02

Gurobi 9.5.2 (win64, C++) logging started Fri Oct 21 09:26:22 2022

Set parameter Username
Set parameter LogFile to value "PortfolioOptimization.log"
Academic license - for non-commercial use only - expires 2023-10-06
Gurobi Optimizer version 9.5.2 build v9.5.2rc0 (win64)
Thread count: 4 physical cores, 8 logical processors, using up to 8 threads
Optimize a model with 2 rows, 5 columns and 10 nonzeros
Model fingerprint: 0x1008ee21
Coefficient statistics:
  Matrix range     [1e+00, 1e+01]
  Objective range  [7e+01, 3e+02]
  Bounds range     [1e+00, 1e+00]
  RHS range        [1e+00, 1e+01]
Presolve time: 0.00s
Presolved: 2 rows, 5 columns, 10 nonzeros

Iteration    Objective       Primal Inf.    Dual Inf.      Time
       0    2.6276903e+02   4.596805e-01   0.000000e+00      0s
       1    1.4326242e+02   0.000000e+00   0.000000e+00      0s

Solved in 1 iterations and 0.01 seconds (0.00 work units)
Optimal objective  1.432624245e+02

Gurobi 9.5.2 (win64, C++) logging started Fri Oct 21 09:28:49 2022

Set parameter Username
Set parameter LogFile to value "PortfolioOptimization.log"
Academic license - for non-commercial use only - expires 2023-10-06
Gurobi Optimizer version 9.5.2 build v9.5.2rc0 (win64)
Thread count: 4 physical cores, 8 logical processors, using up to 8 threads
Optimize a model with 2 rows, 3 columns and 6 nonzeros
Model fingerprint: 0xddb8d2dc
Coefficient statistics:
  Matrix range     [1e+00, 1e+01]
  Objective range  [7e+01, 3e+02]
  Bounds range     [1e+00, 1e+00]
  RHS range        [1e+00, 1e+01]
Presolve time: 0.01s
Presolved: 2 rows, 3 columns, 6 nonzeros

Iteration    Objective       Primal Inf.    Dual Inf.      Time
       0    2.9614273e+02   5.795119e-01   0.000000e+00      0s
       1    1.4440382e+02   0.000000e+00   0.000000e+00      0s

Solved in 1 iterations and 0.01 seconds (0.00 work units)
Optimal objective  1.444038245e+02

Gurobi 9.5.2 (win64, C++) logging started Fri Oct 21 09:28:57 2022

Set parameter Username
Set parameter LogFile to value "PortfolioOptimization.log"
Academic license - for non-commercial use only - expires 2023-10-06
Gurobi Optimizer version 9.5.2 build v9.5.2rc0 (win64)
Thread count: 4 physical cores, 8 logical processors, using up to 8 threads
Optimize a model with 2 rows, 3 columns and 6 nonzeros
Model fingerprint: 0x462e07ae
Coefficient statistics:
  Matrix range     [1e+00, 9e+00]
  Objective range  [7e+01, 9e+01]
  Bounds range     [1e+00, 1e+00]
  RHS range        [1e+00, 1e+01]
Presolve time: 0.01s
Presolved: 2 rows, 3 columns, 6 nonzeros

Iteration    Objective       Primal Inf.    Dual Inf.      Time
       0    8.7679837e+01   1.773971e-01   0.000000e+00      0s

Solved in 0 iterations and 0.01 seconds (0.00 work units)
Infeasible model

IIS computed: 2 constraints and 2 bounds
IIS runtime: 0.00 seconds (0.00 work units)

Gurobi 9.5.2 (win64, C++) logging started Fri Oct 21 09:32:33 2022

Set parameter Username
Set parameter LogFile to value "PortfolioOptimization.log"
Academic license - for non-commercial use only - expires 2023-10-06
Gurobi Optimizer version 9.5.2 build v9.5.2rc0 (win64)
Thread count: 4 physical cores, 8 logical processors, using up to 8 threads
Optimize a model with 2 rows, 5 columns and 10 nonzeros
Model fingerprint: 0x1008ee21
Coefficient statistics:
  Matrix range     [1e+00, 1e+01]
  Objective range  [7e+01, 3e+02]
  Bounds range     [1e+00, 1e+00]
  RHS range        [1e+00, 1e+01]
Presolve time: 0.01s
Presolved: 2 rows, 5 columns, 10 nonzeros

Iteration    Objective       Primal Inf.    Dual Inf.      Time
       0    2.6276903e+02   4.596805e-01   0.000000e+00      0s
       1    1.4326242e+02   0.000000e+00   0.000000e+00      0s

Solved in 1 iterations and 0.02 seconds (0.00 work units)
Optimal objective  1.432624245e+02

Gurobi 9.5.2 (win64, C++) logging started Fri Oct 21 16:16:42 2022

Set parameter Username
Set parameter LogFile to value "PortfolioOptimization.log"
Academic license - for non-commercial use only - expires 2023-10-06
Gurobi Optimizer version 9.5.2 build v9.5.2rc0 (win64)
Thread count: 4 physical cores, 8 logical processors, using up to 8 threads
Optimize a model with 2 rows, 5 columns and 10 nonzeros
Model fingerprint: 0x1008ee21
Coefficient statistics:
  Matrix range     [1e+00, 1e+01]
  Objective range  [7e+01, 3e+02]
  Bounds range     [1e+00, 1e+00]
  RHS range        [1e+00, 1e+01]
Presolve time: 0.01s
Presolved: 2 rows, 5 columns, 10 nonzeros

Iteration    Objective       Primal Inf.    Dual Inf.      Time
       0    2.6276903e+02   4.596805e-01   0.000000e+00      0s
       1    1.4326242e+02   0.000000e+00   0.000000e+00      0s

Solved in 1 iterations and 0.02 seconds (0.00 work units)
Optimal objective  1.432624245e+02

Gurobi 9.5.2 (win64, C++) logging started Fri Oct 21 16:17:27 2022

Set parameter Username
Set parameter LogFile to value "PortfolioOptimization.log"
Academic license - for non-commercial use only - expires 2023-10-06
Gurobi Optimizer version 9.5.2 build v9.5.2rc0 (win64)
Thread count: 4 physical cores, 8 logical processors, using up to 8 threads
Optimize a model with 2 rows, 5 columns and 10 nonzeros
Model fingerprint: 0x1008ee21
Coefficient statistics:
  Matrix range     [1e+00, 1e+01]
  Objective range  [7e+01, 3e+02]
  Bounds range     [1e+00, 1e+00]
  RHS range        [1e+00, 1e+01]
Presolve time: 0.01s
Presolved: 2 rows, 5 columns, 10 nonzeros

Iteration    Objective       Primal Inf.    Dual Inf.      Time
       0    2.6276903e+02   4.596805e-01   0.000000e+00      0s
       1    1.4326242e+02   0.000000e+00   0.000000e+00      0s

Solved in 1 iterations and 0.02 seconds (0.00 work units)
Optimal objective  1.432624245e+02

Gurobi 9.5.2 (win64, C++) logging started Fri Oct 21 16:17:34 2022

Set parameter Username
Set parameter LogFile to value "PortfolioOptimization.log"
Academic license - for non-commercial use only - expires 2023-10-06
Gurobi Optimizer version 9.5.2 build v9.5.2rc0 (win64)
Thread count: 4 physical cores, 8 logical processors, using up to 8 threads
Optimize a model with 2 rows, 3 columns and 6 nonzeros
Model fingerprint: 0xddb8d2dc
Coefficient statistics:
  Matrix range     [1e+00, 1e+01]
  Objective range  [7e+01, 3e+02]
  Bounds range     [1e+00, 1e+00]
  RHS range        [1e+00, 1e+01]
Presolve time: 0.01s
Presolved: 2 rows, 3 columns, 6 nonzeros

Iteration    Objective       Primal Inf.    Dual Inf.      Time
       0    2.9614273e+02   5.795119e-01   0.000000e+00      0s
       1    1.4440382e+02   0.000000e+00   0.000000e+00      0s

Solved in 1 iterations and 0.01 seconds (0.00 work units)
Optimal objective  1.444038245e+02

Gurobi 9.5.2 (win64, C++) logging started Fri Oct 21 16:18:00 2022

Set parameter Username
Set parameter LogFile to value "PortfolioOptimization.log"
Academic license - for non-commercial use only - expires 2023-10-06
Gurobi Optimizer version 9.5.2 build v9.5.2rc0 (win64)
Thread count: 4 physical cores, 8 logical processors, using up to 8 threads
Optimize a model with 2 rows, 5 columns and 10 nonzeros
Model fingerprint: 0x1008ee21
Coefficient statistics:
  Matrix range     [1e+00, 1e+01]
  Objective range  [7e+01, 3e+02]
  Bounds range     [1e+00, 1e+00]
  RHS range        [1e+00, 1e+01]
Presolve time: 0.01s
Presolved: 2 rows, 5 columns, 10 nonzeros

Iteration    Objective       Primal Inf.    Dual Inf.      Time
       0    2.6276903e+02   4.596805e-01   0.000000e+00      0s
       1    1.4326242e+02   0.000000e+00   0.000000e+00      0s

Solved in 1 iterations and 0.01 seconds (0.00 work units)
Optimal objective  1.432624245e+02
